c colouring generated by benchmark framework
p edge 225 5180
v 1 7
v 2 2
v 3 13
v 4 8
v 5 6
v 6 15
v 7 5
v 8 19
v 9 3
v 10 20
v 11 21
v 12 11
v 13 0
v 14 16
v 15 1
v 16 13
v 17 18
v 18 23
v 19 1
v 20 16
v 21 2
v 22 9
v 23 17
v 24 21
v 25 7
v 26 6
v 27 3
v 28 12
v 29 20
v 30 4
v 31 3
v 32 1
v 33 16
v 34 20
v 35 4
v 36 12
v 37 19
v 38 18
v 39 15
v 40 10
v 41 14
v 42 22
v 43 5
v 44 13
v 45 8
v 46 21
v 47 14
v 48 19
v 49 17
v 50 11
v 51 20
v 52 7
v 53 12
v 54 5
v 55 4
v 56 1
v 57 0
v 58 8
v 59 6
v 60 15
v 61 17
v 62 3
v 63 7
v 64 14
v 65 21
v 66 5
v 67 8
v 68 13
v 69 22
v 70 0
v 71 16
v 72 23
v 73 19
v 74 11
v 75 2
v 76 4
v 77 12
v 78 22
v 79 10
v 80 0
v 81 13
v 82 21
v 83 7
v 84 9
v 85 11
v 86 2
v 87 14
v 88 18
v 89 15
v 90 5
v 91 9
v 92 8
v 93 4
v 94 11
v 95 23
v 96 22
v 97 1
v 98 6
v 99 19
v 100 15
v 101 3
v 102 17
v 103 10
v 104 12
v 105 21
v 106 0
v 107 7
v 108 12
v 109 9
v 110 1
v 111 17
v 112 2
v 113 10
v 114 16
v 115 18
v 116 5
v 117 4
v 118 3
v 119 23
v 120 20
v 121 12
v 122 10
v 123 14
v 124 0
v 125 8
v 126 4
v 127 15
v 128 5
v 129 2
v 130 3
v 131 11
v 132 6
v 133 7
v 134 19
v 135 18
v 136 16
v 137 6
v 138 9
v 139 15
v 140 19
v 141 3
v 142 12
v 143 11
v 144 7
v 145 23
v 146 22
v 147 5
v 148 14
v 149 8
v 150 13
v 151 11
v 152 17
v 153 5
v 154 7
v 155 18
v 156 6
v 157 23
v 158 0
v 159 1
v 160 9
v 161 19
v 162 13
v 163 16
v 164 21
v 165 10
v 166 18
v 167 21
v 168 11
v 169 4
v 170 14
v 171 1
v 172 16
v 173 20
v 174 17
v 175 8
v 176 10
v 177 12
v 178 15
v 179 3
v 180 19
v 181 10
v 182 23
v 183 2
v 184 18
v 185 15
v 186 8
v 187 13
v 188 21
v 189 14
v 190 6
v 191 4
v 192 20
v 193 9
v 194 0
v 195 17
v 196 20
v 197 9
v 198 3
v 199 5
v 200 2
v 201 0
v 202 18
v 203 16
v 204 23
v 205 19
v 206 8
v 207 21
v 208 17
v 209 22
v 210 7
v 211 14
v 212 22
v 213 0
v 214 21
v 215 9
v 216 10
v 217 3
v 218 4
v 219 6
v 220 17
v 221 7
v 222 2
v 223 13
v 224 18
v 225 11
